
Gurobi 13.0.2 (win64) logging started Fri Jul 24 04:48:48 2026

Set parameter LogFile to value "E:\codes\ExactEBRP\results\gf_c0_mechanism_transfer_c5_round30\development\high_imbalance_seed3202__c4_candidate__60s\external\native_logs\L2.0.0.1.1_lp.gurobi.log"
Gurobi Optimizer version 13.0.2 build v13.0.2rc1 (win64 - Windows 10.0 (19045.2))

CPU model: 12th Gen Intel(R) Core(TM) i7-12700KF, instruction set [SSE2|AVX|AVX2]
Thread count: 12 physical cores, 20 logical processors, using up to 1 threads

Non-default parameters:
TimeLimit  3.2867980200000005e+01
MIPGap  0
MIPGapAbs  0
LogToConsole  0
Threads  1

Optimize a model with 11895 rows, 3372 columns and 67322 nonzeros (Min)
Model fingerprint: 0x868b1ac3
Model has 21 linear objective coefficients
Coefficient statistics:
  Matrix range     [1e-02, 2e+04]
  Objective range  [1e-02, 1e+00]
  Bounds range     [5e-01, 2e+03]
  RHS range        [5e-01, 5e+04]

Presolve removed 1995 rows and 108 columns
Presolve time: 0.03s
Presolved: 9900 rows, 3265 columns, 50740 nonzeros

Iteration    Objective       Primal Inf.    Dual Inf.      Time
       0    1.1087460e+00   8.011802e+02   0.000000e+00      0s
    2762    1.6133048e+00   0.000000e+00   0.000000e+00      0s

Solved in 2762 iterations and 0.19 seconds (0.52 work units)
Optimal objective  1.613304784e+00

User-callback calls 2907, time in user-callback 0.00 sec
